p cnf 7230 17
-3302 -3304 3711 0
-3314 -3642 -3716 0
-3306 -3308 -3712 0
3314 -3717 0
3306 -3713 0
3716 3717 0
3714 3715 0
3310 -3715 0
-3310 -3714 0
3712 3713 0
3642 -3717 0
3308 -3713 0
-2718 -3316 3719 0
-3710 -3711 0
3316 -3719 0
2718 -3719 0
3710 3711 0
